GeneratedTests/Random_9/Random_9_4.tsp
NAME: Random_9_4
TYPE: TSP
DIMENSION: 9
EDGE_WEIGHT_TYPE: EUC_2D
NODE_COORD_SECTION
1 20.101294 1.9749014
2 24.54207 8.882369
3 22.035042 5.217473
4 24.456224 19.54991
5 9.996687 18.345453
6 23.864721 5.9866567
7 17.119144 13.777162
8 14.711987 22.083536
9 8.352343 13.734686
EOF
