GeneratedTests/Random_9/Random_9_4.txt
NAME: Random_9_4
TYPE: TSP
DIMENSION: 9
EDGE_WEIGHT_TYPE: EUC_2D
NODE_COORD_SECTION
1 12.983541 1.1406753
2 24.79613 21.964165
3 23.043627 10.534406
4 8.093767 19.371782
5 13.512781 25.1931
6 3.849352 3.1524239
7 10.517017 2.909366
8 2.4460201 24.927586
9 1.5601927 14.688797
EOF
